0
1
0
1
0
1
0
1
0
1
0
1
0
1
0
1
0
1
0
1
0
1
0
1
0
1
0
1
0
1
0
1
0
1
0
1
0
1
0
1
0
1
0
1
0
1
0
1
0
1
0
1
0
1
0
1
0
1
0
1
0
1
0
1
0
1
0
1
0
1
0
1
0
1
0
1
0
1
0
1
0
1
0
1
0
1
0
1
0
1
0
1
0
1
0
1
0
1
0
1
0
1
0
1
0
1
0
1
0
1
0
1
0
1
0
1
0
1
0
1
0
1
0
1
0
1
0
1
0
1
0
1
0
1
0
1
0
1
0
1
0
1
0
1
0
1
0
1
0
1
0
1
0
1
0
1
0
1
0
1
0
1
0
1
0
1
0
1
0
1
0
1
0
1
0
1
0
1
0
1
0
1
0
1
0
1
0
1
0
1
0
1
0
1
0
1
0
1
0
1
0
1
0
1
0
1
0
1
0
1
0
1
0
1
0
1
0
1
0
1
0
1
0
1
0
1
0
1
0
1
0
1
0
1
0
1
0
1
0
1
0
1
0
1
0
1
0
1
0
1
0
1
0
1
0
1
0
1
0
1
0
1
0
1
0
1
0
1
0
1
0
1
0
1
0
1
0
1
0
1
0
1
0
1
0
1
0
1
0
1
0
1
0
1
0
1
0
1
0
1
0
1
0
1
0
1
0
1
0
1
0
1
0
1
0
1
0
1
0
1
0
1
0
1
0
1
0
1
0
1
0
1
0
1
0
1
0
1
0
1
0
1
0
1
0
1
0
1
0
1
0
1
0
1
0
1
0
1
0
1
0
1
0
1
0
1
0
1
0
1
0
1
0
1
0
1
0
1
0
1
0
1
0
1
0
1
0
1
0
1
0
1
0
1
0
1
0
1
0
1
0
1
0
1
0
1
0
1
0
1
0
1
0
1
0
1
0
1
0
1
1
2
1
2
1
2
1
2
1
2
1
2
1
2
1
2
1
2
1
2
2
3
2
3
2
3
2
3
2
3
2
3
2
3
2
3
2
3
2
3
2
3
2
3
2
3
2
3
2
3
2
3
2
3
2
3
2
3
2
3
2
3
2
3
2
3
2
3
2
3
2
3
2
3
2
3
2
3
2
3
2
3
2
3
2
3
2
3
2
3
2
3
2
3
2
3
2
3
2
3
2
3
2
3
2
3
2
3
2
3
2
3
2
3
2
3
2
3
2
3
2
3
2
3
2
3
2
3
2
3
2
3
2
3
2
3
2
3
2
3
2
3
2
3
2
3
2
3
2
3
2
3
2
3
2
3
2
3
2
3
2
3
2
3
2
3
2
3
2
3
2
3
2
3
2
3
2
3
2
3
2
3
2
3
2
3
2
3
2
3
2
3
2
3
2
3
2
3
2
3
2
3
2
3
2
3
2
3
2
3
2
3
2
3
2
3
2
3
2
3
2
3
2
3
2
3
2
3
2
3
2
3
2
3
2
3
2
3
2
3
2
3
2
3
2
3
2
3
2
3
2
3
2
3
2
3
2
3
2
3
2
3
2
3
2
3
2
3
2
3
2
3
2
3
2
3
2
3
2
3
2
3
2
3
2
3
2
3
2
3
2
3
2
3
2
3
2
3
2
3
2
3
2
3
2
3
2
3
2
3
2
3
2
3
2
3
2
3
2
3
2
3
2
3
2
3
2
3
2
3
2
3
2
3
2
3
2
3
2
3
2
3
2
3
2
3
2
3
2
3
2
3
2
3
2
3
2
3
2
3
2
3
2
3
2
3
2
3
2
3
2
3
2
3
2
3
2
3
2
3
2
3
2
3
2
3
2
3
2
3
2
3
2
3
2
3
2
3
2
3
0
2
0
2
0
2
0
2
0
2
0
2
0
2
0
2
0
2
0
2
4
5
4
5
4
5
4
5
4
5
4
5
4
5
4
5
4
5
4
5
6
7
6
7
6
7
6
7
6
7
6
7
6
7
6
7
6
7
6
7
4
5
4
5
4
5
4
5
4
5
4
5
4
5
4
5
4
5
4
5
6
7
6
7
6
7
6
7
6
7
6
7
6
7
6
7
6
7
6
7
4
5
4
5
4
5
4
5
4
5
4
5
4
5
4
5
4
5
4
5
6
7
6
7
6
7
6
7
6
7
6
7
6
7
6
7
6
7
6
7
4
5
4
5
4
5
4
5
4
5
4
5
4
5
4
5
4
5
4
5
6
7
6
7
6
7
6
7
6
7
6
7
6
7
6
7
6
7
6
7
4
5
4
5
4
5
4
5
4
5
4
5
4
5
4
5
4
5
4
5
6
7
6
7
6
7
6
7
6
7
6
7
6
7
6
7
6
7
6
7
4
5
4
5
4
5
4
5
4
5
4
5
4
5
4
5
4
5
4
5
6
7
6
7
6
7
6
7
6
7
6
7
6
7
6
7
6
7
6
7
4
5
4
5
4
5
4
5
4
5
4
5
4
5
4
5
4
5
4
5
6
7
6
7
6
7
6
7
6
7
6
7
6
7
6
7
6
7
6
7
4
5
4
5
4
5
4
5
4
5
4
5
4
5
4
5
4
5
4
5
6
7
6
7
6
7
6
7
6
7
6
7
6
7
6
7
6
7
6
7
4
5
4
5
4
5
4
5
4
5
4
5
4
5
4
5
4
5
4
5
6
7
6
7
6
7
6
7
6
7
6
7
6
7
6
7
6
7
6
7
4
5
4
5
4
5
4
5
4
5
4
5
4
5
4
5
4
5
4
5
6
7
6
7
6
7
6
7
6
7
6
7
6
7
6
7
6
7
6
7
